c Problem line (nodes, links)
c  from http://lpsolve.sourceforge.net/5.5/DIMACS_mcf.htm
c
p min 4 5
c
c Node descriptor lines (supply+ or demand-)
n 1 4
n 4 -4
c
c Arc descriptor lines (from, to, minflow, maxflow, cost)
a 1 2 0 4 2
a 1 3 0 2 2
a 2 3 0 2 1
a 2 4 0 3 3
a 3 4 0 5 1
c
c End of file
